p cnf 10 50
-5 8 9 0
-4 -2 -10 0
3 6 -5 0
7 4 -2 0
-1 -8 6 0
-8 -1 10 0
2 10 -4 0
-7 6 -2 0
-6 4 -7 0
6 10 -9 0
-7 1 -9 0
-1 -10 -7 0
2 8 7 0
-6 -8 7 0
-4 -8 10 0
-5 -3 -8 0
4 -8 -7 0
-9 3 5 0
-10 -5 8 0
-9 3 2 0
4 8 -6 0
-3 -6 8 0
-8 4 -3 0
-10 -8 2 0
-5 4 2 0
-6 7 9 0
-7 -1 -2 0
3 9 1 0
-10 4 5 0
5 -6 2 0
-2 -5 8 0
9 10 -1 0
3 -1 9 0
-4 -7 -6 0
-8 10 5 0
-9 -2 -3 0
9 -8 -1 0
-4 -10 -5 0
-1 10 -5 0
-8 2 3 0
4 -1 3 0
9 -8 -7 0
-1 6 -4 0
-9 -2 8 0
-1 -9 -2 0
1 -2 -7 0
-2 4 -9 0
-10 -1 9 0
9 -1 -2 0
8 -5 3 0